p edge 500 108
e 122 304 1.000000
e 122 279 1.000000
e 279 304 1.000000
e 67 190 1.000000
e 67 469 1.000000
e 190 469 1.000000
e 310 321 1.000000
e 243 310 1.000000
e 243 321 1.000000
e 298 311 1.000000
e 34 298 1.000000
e 34 311 1.000000
e 7 466 1.000000
e 7 429 1.000000
e 429 466 1.000000
e 241 283 1.000000
e 133 241 1.000000
e 133 283 1.000000
e 120 368 1.000000
e 99 120 1.000000
e 99 368 1.000000
e 241 277 1.000000
e 241 429 1.000000
e 277 429 1.000000
e 244 282 1.000000
e 204 282 1.000000
e 204 244 1.000000
e 328 441 1.000000
e 78 328 1.000000
e 78 441 1.000000
e 119 326 1.000000
e 78 119 1.000000
e 78 326 1.000000
e 445 475 1.000000
e 268 445 1.000000
e 268 475 1.000000
e 200 380 1.000000
e 8 200 1.000000
e 8 380 1.000000
e 344 398 1.000000
e 33 344 1.000000
e 33 398 1.000000
e 82 389 1.000000
e 82 491 1.000000
e 389 491 1.000000
e 22 303 1.000000
e 22 155 1.000000
e 155 303 1.000000
e 400 422 1.000000
e 16 400 1.000000
e 16 422 1.000000
e 138 444 1.000000
e 138 243 1.000000
e 243 444 1.000000
e 305 369 1.000000
e 305 472 1.000000
e 369 472 1.000000
e 199 450 1.000000
e 199 366 1.000000
e 366 450 1.000000
e 404 472 1.000000
e 219 404 1.000000
e 219 472 1.000000
e 203 373 1.000000
e 203 411 1.000000
e 373 411 1.000000
e 296 494 1.000000
e 228 296 1.000000
e 228 494 1.000000
e 69 480 1.000000
e 69 450 1.000000
e 450 480 1.000000
e 50 188 1.000000
e 19 188 1.000000
e 19 50 1.000000
e 70 254 1.000000
e 70 112 1.000000
e 112 254 1.000000
e 133 495 1.000000
e 133 345 1.000000
e 345 495 1.000000
e 224 399 1.000000
e 224 321 1.000000
e 321 399 1.000000
e 155 438 1.000000
e 155 216 1.000000
e 216 438 1.000000
e 260 427 1.000000
e 198 260 1.000000
e 198 427 1.000000
e 180 294 1.000000
e 180 274 1.000000
e 274 294 1.000000
e 209 300 1.000000
e 119 300 1.000000
e 119 209 1.000000
e 173 463 1.000000
e 173 350 1.000000
e 350 463 1.000000
e 469 476 1.000000
e 15 469 1.000000
e 15 476 1.000000
e 144 439 1.000000
e 144 311 1.000000
e 311 439 1.000000
e 344 357 1.000000
e 84 344 1.000000
e 84 357 1.000000
